59 26 34 0 31 90 36 47 61 35 71 39 19 33 2 38 20 77 50 43 8 82 51 60 57 87 24 1 56 69 65 17 3 15 83 92 96 12 7 10 13 95 70 93 72 42 52 16 44 66 76 79 27 68 32 62 74 30 5 98 54 86 28 48 80 97 9 99 49 78 40 73 45 55 41 22 64 94 67 84 29 85 4 23 6 25 75 81 11 37 46 18 91 53 58 14 89 88 63 21 

